(set-info :smt-lib-version 2.6)
(set-logic QF_UFLRA)
(set-info :source |
MathSat group

|)
(set-info :category "random")
(set-info :status unsat)
(declare-fun x0 () Real)
(declare-fun x1 () Real)
(declare-fun x2 () Real)
(declare-fun x3 () Real)
(declare-fun x4 () Real)
(declare-fun x5 () Real)
(declare-fun x6 () Real)
(declare-fun x7 () Real)
(declare-fun x8 () Real)
(declare-fun x9 () Real)
(declare-fun x10 () Real)
(declare-fun x11 () Real)
(declare-fun x12 () Real)
(declare-fun x13 () Real)
(declare-fun x14 () Real)
(declare-fun x15 () Real)
(declare-fun x16 () Real)
(declare-fun x17 () Real)
(declare-fun x18 () Real)
(declare-fun x19 () Real)
(declare-fun x20 () Real)
(declare-fun x21 () Real)
(declare-fun x22 () Real)
(declare-fun x23 () Real)
(declare-fun x24 () Real)
(declare-fun x25 () Real)
(declare-fun x26 () Real)
(declare-fun x27 () Real)
(declare-fun x28 () Real)
(declare-fun x29 () Real)
(declare-fun f0_1 (Real) Real)
(declare-fun f0_2 (Real Real) Real)
(declare-fun f0_3 (Real Real Real) Real)
(declare-fun f0_4 (Real Real Real Real) Real)
(declare-fun P0 () Bool)
(declare-fun P1 () Bool)
(declare-fun P2 () Bool)
(declare-fun P3 () Bool)
(declare-fun P4 () Bool)
(declare-fun P5 () Bool)
(declare-fun P6 () Bool)
(declare-fun P7 () Bool)
(declare-fun P8 () Bool)
(declare-fun P9 () Bool)
(declare-fun P10 () Bool)
(declare-fun P11 () Bool)
(declare-fun P12 () Bool)
(declare-fun P13 () Bool)
(declare-fun P14 () Bool)
(declare-fun P15 () Bool)
(declare-fun P16 () Bool)
(declare-fun P17 () Bool)
(declare-fun P18 () Bool)
(declare-fun P19 () Bool)
(declare-fun P20 () Bool)
(declare-fun P21 () Bool)
(declare-fun P22 () Bool)
(declare-fun P23 () Bool)
(declare-fun P24 () Bool)
(declare-fun P25 () Bool)
(declare-fun P26 () Bool)
(declare-fun P27 () Bool)
(declare-fun P28 () Bool)
(declare-fun P29 () Bool)
(assert (let ((?v_19 (* 39 x8)) (?v_16 (< (- (+ (* 35 x8) (* 33 x11)) (* 15 x3)) 16)) (?v_89 (distinct (+ (- (* 25 x25) (* 33 x3)) (* 33 x2)) 4))) (let ((?v_137 (= (- (+ (* 32 x4) (* 41 x12)) ?v_19) 24)) (?v_123 (= (- (+ (* 7 x5) (* 41 x14)) (* 15 x29)) 28)) (?v_98 (<= (- (+ (* 41 x7) (* 21 x13)) (* 6 x24)) 11)) (?v_42 (f0_1 x12))) (let ((?v_29 (distinct ?v_42 x26)) (?v_15 (= (f0_1 x17) (f0_1 x0))) (?v_1 (f0_1 x20))) (let ((?v_76 (= (f0_2 x25 x18) ?v_1)) (?v_17 (distinct x4 (f0_1 x29))) (?v_32 (distinct (f0_1 x23) (f0_2 x8 x15))) (?v_28 (f0_1 x9))) (let ((?v_50 (distinct (f0_1 x21) ?v_28)) (?v_21 (distinct x0 x17)) (?v_22 (= x21 (f0_2 x1 x2))) (?v_103 (distinct (f0_1 x25) (f0_2 x20 x4))) (?v_14 (= x3 ?v_1)) (?v_2 (distinct x20 ?v_1)) (?v_113 (f0_1 x5))) (let ((?v_6 (= x2 ?v_113)) (?v_101 (distinct (f0_1 x8) (f0_2 x6 x8))) (?v_72 (distinct x18 (f0_2 x10 x4))) (?v_86 (= x18 (f0_2 x6 x6))) (?v_69 (= ?v_42 (f0_1 x6))) (?v_25 (f0_1 x15))) (let ((?v_45 (distinct ?v_25 (f0_2 x20 x20))) (?v_143 (= (f0_2 x14 x20) (f0_1 x27))) (?v_54 (distinct (f0_2 x18 x21) x11)) (?v_47 (distinct (f0_1 x3) x1)) (?v_8 (= x8 (f0_2 x26 x16))) (?v_4 (= x14 x26)) (?v_34 (= (f0_2 x3 x28) (f0_2 x6 x22))) (?v_111 (= (f0_1 x28) (f0_2 x11 x17))) (?v_49 (distinct (f0_1 x7) x1)) (?v_61 (distinct x8 (f0_2 x23 x7))) (?v_35 (distinct x6 x12)) (?v_30 (distinct (f0_1 x1) (f0_2 x6 x7))) (?v_46 (distinct ?v_25 ?v_28)) (?v_150 (distinct ?v_113 x5))) (let ((?v_121 (not ?v_8)) (?v_71 (not ?v_16)) (?v_0 (not P3)) (?v_9 (not ?v_76)) (?v_10 (not P24)) (?v_116 (not P29)) (?v_3 (not P23)) (?v_106 (not ?v_137)) (?v_149 (not P19)) (?v_64 (not P2)) (?v_26 (not ?v_86)) (?v_147 (not P17)) (?v_11 (not ?v_47)) (?v_27 (not ?v_6)) (?v_75 (not ?v_123)) (?v_13 (not P16)) (?v_96 (not ?v_45)) (?v_144 (not ?v_15)) (?v_80 (not ?v_143)) (?v_18 (not ?v_17)) (?v_129 (not P22)) (?v_20 (not P10)) (?v_36 (not P15)) (?v_70 (not P6)) (?v_43 (not P12)) (?v_40 (not ?v_61)) (?v_41 (not ?v_22)) (?v_65 (not ?v_54)) (?v_110 (not ?v_30)) (?v_62 (not ?v_14)) (?v_51 (not P5)) (?v_97 (not P13)) (?v_37 (not P0)) (?v_95 (not ?v_4)) (?v_38 (not ?v_34)) (?v_52 (not ?v_111)) (?v_91 (not P21)) (?v_127 (not P26)) (?v_57 (not ?v_69)) (?v_105 (not ?v_29)) (?v_130 (not ?v_46))) (let ((?v_148 (or ?v_130 P13)) (?v_67 (not P18)) (?v_153 (not P11)) (?v_73 (not ?v_49)) (?v_136 (not ?v_2)) (?v_56 (not ?v_50)) (?v_145 (not ?v_72)) (?v_87 (not P9)) (?v_78 (not P8)) (?v_66 (not ?v_98)) (?v_77 (not P20)) (?v_59 (not P25)) (?v_115 (not ?v_35)) (?v_94 (not ?v_21)) (?v_122 (not P28)) (?v_108 (not P4)) (?v_112 (not P27)) (?v_102 (not P14)) (?v_142 (not ?v_103)) (?v_125 (not P7)) (?v_139 (not ?v_150)) (?v_134 (not ?v_89)) (?v_138 (not P1)) (?v_155 (not ?v_101)) (?v_92 (<= (- (+ (* 31 x2) (* 25 x27)) 0) 23)) (?v_135 (<= (+ (* 22 x25) (* 33 x15) (* 38 x4)) 21)) (?v_60 (<= (+ (* 16 x9) (* 33 x27) (* 30 x11)) 31))) (let ((?v_119 (not ?v_60)) (?v_132 (not ?v_92)) (?v_141 (not ?v_135)) (?v_55 (<= (- (+ (* 23 x3) (* 12 x26)) (* 3 x19)) (- 2)))) (let ((?v_53 (not ?v_55)) (?v_109 (< (- (- (* (- 11) x21) (* 27 x23)) (* 35 x2)) 15))) (let ((?v_23 (not ?v_109)) (?v_39 (= (+ (* 8 x21) (* 18 x9) (* 14 x18)) (- 22))) (?v_33 (<= (+ (* (- 11) x10) (* 32 x14) (* 26 x18)) (- 41)))) (let ((?v_24 (not ?v_33)) (?v_58 (< (- (- (* (- 6) x0) x27) (* 2 x7)) (- 7)))) (let ((?v_31 (not ?v_58)) (?v_7 (= (- (+ (* (- 10) x11) (* 18 x23)) (* 35 x22)) (- 38))) (?v_44 (< (- (- (* (- 23) x12) (* 9 x9)) (* 21 x21)) 9))) (let ((?v_82 (not ?v_44)) (?v_5 (<= (- (- (* (- 5) x25) (* 26 x16)) (* 2 x18)) (- 18)))) (let ((?v_79 (not ?v_5)) (?v_83 (<= (- (+ (* 40 x27) (* 27 x28)) (* 12 x6)) (- 4))) (?v_99 (< (+ (- (* 34 x3) (* 32 x27)) (* 42 x7)) (- 16)))) (let ((?v_12 (not ?v_99)) (?v_81 (not ?v_7)) (?v_48 (<= (- (+ x16 (* 31 x23)) (* 10 x4)) (- 34)))) (let ((?v_114 (not ?v_48)) (?v_117 (< (+ (- (* (- 17) x10) (* 37 x3)) (* 31 x9)) (- 17)))) (let ((?v_68 (not ?v_117)) (?v_88 (< (+ (* (- 33) x20) (* 10 x13) (* 5 x2)) (- 39))) (?v_84 (<= (+ (* (- 10) x14) (* 32 x13) ?v_19) 5))) (let ((?v_100 (not ?v_84)) (?v_133 (< (+ (* (- 32) x23) (* 40 x18) (* 37 x6)) 34)) (?v_118 (< (- (- (* (- 40) x6) (* 26 x12)) (* 23 x16)) 11)) (?v_90 (< (- (- (* (- 11) x13) (* 35 x10)) (* 26 x1)) (- 33))) (?v_93 (<= (+ (* (- 41) x16) (* 34 x28) (* 26 x5)) 0)) (?v_104 (not ?v_39)) (?v_63 (< (- (+ (* 6 x25) (* 26 x11)) x9) (- 11)))) (let ((?v_120 (not ?v_63)) (?v_74 (<= (- (- (* (- 20) x27) (* 22 x3)) (* 39 x27)) 17))) (let ((?v_146 (not ?v_74)) (?v_85 (not ?v_83)) (?v_126 (<= (+ (* (- 10) x6) x16 (* 42 x13)) 23))) (let ((?v_128 (not ?v_126)) (?v_152 (not ?v_90)) (?v_107 (not ?v_88)) (?v_124 (not ?v_93)) (?v_151 (not ?v_118)) (?v_131 (< (+ (- (* 29 x12) (* 6 x22)) (* 9 x5)) (- 33)))) (let ((?v_154 (not ?v_131)) (?v_140 (not ?v_133))) (and (and (and (and (and (and (and (and (and (and (and (and (and (and (and (and (and (and (and (and (and (and (and (and (and (and (and (and (and (and (and (and (and (and (and (and (and (and (and (and (and (and (and (and (and (and (and (and (and (and (and (and (and (and (and (and (and (and (and (and (and (and (and (and (and (and (and (and (and (and (and (and (and (and (and (and (and (and (and (and (and (and (and (and (and (and (and (and (and (and (and (and (and (and (and (and (and (and (and (and (and (and (and (and (and (and (and (and (and (and (and (and (and (and (and (and (and (and (and (and (and (and (and (and (and (and (and (and (and (and (and (and (and (and (and (and (and (and (and (and (and (and (and (and (and (and (and (and (and (and (and (and (and (and (and (and (and (and (and (and (and (and (and (and (and (and (and (and (and (and (and (and (and (and (and (and (and (and (and (and (and (and (and (and (and (and (and (and (and (and (and (and (and (and (and (and (and (and (and (and (and (and (and (and (and (and (and (and (and (and (and (and (and (and (and (and (and (and (and (and (and (and (and (and (and (and (and (and (and (and (and (and (and (and (and (and (and (and (and (and (and (and (and (and (and (and (and (and (and (and (and (and (and (and (and (and (and (and (and (and (and (and (and (and (and (and (and (and (and (and (and (and (and (and (and (and (and (and (and (and (and (and (and (and (and (and (and (and (and (and (and (and (and (and (and (and (and (and (and (and (and (and (and (and (and (and (and (and (and (and (and (and (and (and (and (and (and (and (and (and (and (and (and (and (and (and (and (and (and (and (and (and (and (and (and (and (and (and (and (and (and (and (and (and (and (and (and (and (and (and (and (and (and (and (and (and (and (and (and (or (or ?v_121 ?v_71) ?v_53) (or (or ?v_0 ?v_23) ?v_9)) (or (or P12 ?v_39) ?v_24)) (or (or P18 ?v_0) ?v_21)) (or (or ?v_10 ?v_116) ?v_3)) (or (or ?v_31 ?v_101) P12)) (or (or ?v_4 ?v_106) ?v_2)) (or (or ?v_14 P16) ?v_7)) (or (or ?v_149 ?v_32) ?v_64)) (or (or ?v_82 ?v_5) ?v_6)) (or (or ?v_26 P3) ?v_2)) (or (or ?v_147 ?v_3) ?v_0)) (or (or ?v_4 ?v_79) ?v_11)) (or (or ?v_83 ?v_27) ?v_12)) (or (or ?v_81 ?v_75) ?v_13)) (or (or ?v_96 ?v_114) ?v_8)) (or (or ?v_9 ?v_10) ?v_144)) (or (or ?v_11 ?v_12) ?v_22)) (or (or ?v_80 P9) ?v_18)) (or (or ?v_34 P20) P21)) (or (or P4 ?v_129) ?v_13)) (or (or ?v_5 ?v_68) ?v_20)) (or (or ?v_3 ?v_14) ?v_36)) (or (or P5 ?v_15) ?v_16)) (or (or ?v_17 P26) ?v_88)) (or (or ?v_18 ?v_100) P19)) (or (or P15 P28) ?v_70)) (or (or ?v_10 ?v_133) P17)) (or (or ?v_43 ?v_40) ?v_20)) (or (or ?v_14 P18) ?v_103)) (or (or ?v_21 ?v_118) P26)) (or (or ?v_41 ?v_90) ?v_23)) (or (or ?v_65 ?v_49) ?v_24)) (or (or ?v_46 ?v_26) P27)) (or (or ?v_27 ?v_110) ?v_29)) (or (or ?v_27 ?v_62) ?v_50)) (or (or ?v_35 ?v_29) ?v_30)) (or (or ?v_51 ?v_18) ?v_97)) (or (or ?v_37 ?v_31) ?v_17)) (or (or ?v_32 ?v_95) P22)) (or (or P16 ?v_33) ?v_38)) (or (or ?v_26 ?v_35) ?v_93)) (or (or ?v_52 ?v_92) P23)) (or (or ?v_36 ?v_91) ?v_127)) (or (or ?v_37 ?v_38) ?v_104)) (or (or P11 ?v_120) ?v_26)) (or (or ?v_17 P6) ?v_40)) (or (or ?v_41 P4) P11)) (or (or ?v_57 P8) ?v_43)) (or (or ?v_44 ?v_105) ?v_45)) (or (or P2 ?v_26) P28)) (or ?v_148 ?v_67)) (or (or ?v_47 P4) ?v_153)) (or (or ?v_48 ?v_135) ?v_73)) (or (or ?v_136 ?v_56) ?v_15)) (or (or ?v_51 ?v_119) ?v_6)) (or (or P29 P10) ?v_52)) (or (or ?v_145 ?v_22) P10)) (or (or ?v_53 ?v_87) ?v_54)) (or (or P2 P15) ?v_78)) (or (or ?v_3 ?v_55) ?v_24)) (or (or ?v_56 ?v_57) ?v_66)) (or (or P26 ?v_58) ?v_77)) (or (or ?v_54 ?v_59) P9)) (or (or P8 P28) ?v_59)) (or (or P8 ?v_115) ?v_60)) (or (or P16 P16) ?v_61)) (or (or ?v_45 ?v_146) ?v_40)) (or (or ?v_62 ?v_63) ?v_37)) (or (or ?v_64 P11) P25)) (or (or ?v_65 ?v_23) P1)) (or (or P25 ?v_30) P28)) (or (or ?v_66 ?v_67) ?v_36)) (or (or P23 ?v_68) P2)) (or (or ?v_69 ?v_27) ?v_48)) (or (or ?v_35 ?v_70) ?v_71)) (or (or ?v_8 P3) ?v_72)) (or (or ?v_20 ?v_73) ?v_74)) (or (or ?v_94 ?v_30) P24)) (or (or ?v_75 ?v_76) ?v_122)) (or (or ?v_77 ?v_78) ?v_67)) (or (or ?v_79 ?v_80) ?v_4)) (or (or ?v_72 ?v_81) ?v_61)) (or (or ?v_108 ?v_48) ?v_56)) (or (or ?v_60 ?v_60) ?v_66)) (or (or ?v_47 ?v_47) ?v_3)) (or (or ?v_82 ?v_85) P4)) (or (or ?v_89 ?v_3) ?v_74)) (or (or ?v_46 P9) P21)) (or (or ?v_36 ?v_84) ?v_85)) (or (or ?v_86 ?v_128) ?v_13)) (or (or ?v_87 ?v_88) ?v_65)) (or (or ?v_2 ?v_89) ?v_32)) (or (or ?v_65 ?v_65) ?v_152)) (or (or ?v_18 P10) ?v_86)) (or (or ?v_35 ?v_7) ?v_107)) (or (or ?v_12 ?v_112) ?v_84)) (or (or ?v_89 ?v_68) ?v_91)) (or (or ?v_41 ?v_71) ?v_132)) (or (or ?v_66 ?v_124) ?v_94)) (or (or ?v_95 P24) ?v_96)) (or (or ?v_82 ?v_0) ?v_69)) (or (or ?v_97 P11) P24)) (or (or ?v_44 ?v_44) ?v_98)) (or (or P22 ?v_55) P9)) (or (or ?v_27 ?v_15) ?v_97)) (or (or ?v_68 ?v_99) P23)) (or (or ?v_49 ?v_3) ?v_22)) (or (or ?v_100 ?v_70) ?v_86)) (or (or ?v_101 ?v_102) ?v_75)) (or (or ?v_55 ?v_79) ?v_73)) (or (or ?v_100 ?v_102) ?v_71)) (or (or ?v_22 ?v_70) ?v_142)) (or (or ?v_23 ?v_26) ?v_104)) (or (or ?v_105 ?v_106) ?v_92)) (or (or ?v_105 P22) ?v_107)) (or (or ?v_35 ?v_65) ?v_27)) (or (or ?v_36 ?v_75) ?v_93)) (or (or P23 P1) ?v_108)) (or (or ?v_54 ?v_99) ?v_109)) (or (or P5 ?v_125) ?v_73)) (or (or ?v_86 ?v_34) ?v_105)) (or (or ?v_110 P13) P7)) (or (or ?v_85 ?v_10) ?v_71)) (or (or ?v_53 ?v_111) ?v_66)) (or (or ?v_109 ?v_71) ?v_83)) (or (or P23 ?v_61) P16)) (or (or ?v_61 ?v_112) ?v_139)) (or (or ?v_114 ?v_115) P18)) (or (or ?v_116 ?v_89) ?v_29)) (or (or ?v_71 ?v_117) ?v_151)) (or (or ?v_13 P28) ?v_54)) (or (or ?v_119 ?v_120) ?v_121)) (or (or ?v_92 ?v_70) ?v_122)) (or (or ?v_68 ?v_95) ?v_64)) (or (or ?v_51 ?v_79) ?v_0)) (or (or ?v_4 ?v_111) ?v_77)) (or (or ?v_123 ?v_77) P23)) (or (or ?v_65 P28) P9)) (or (or ?v_124 ?v_117) ?v_107)) (or (or ?v_86 P7) ?v_59)) (or (or ?v_10 ?v_35) ?v_124)) (or (or ?v_125 ?v_30) ?v_82)) (or (or ?v_126 ?v_127) ?v_40)) (or (or ?v_103 ?v_100) ?v_47)) (or (or ?v_134 ?v_80) ?v_69)) (or (or ?v_84 ?v_34) P13)) (or (or ?v_128 P20) P3)) (or (or ?v_129 P21) ?v_22)) (or (or ?v_95 ?v_73) ?v_34)) (or (or ?v_14 ?v_154) ?v_125)) (or (or ?v_43 ?v_83) ?v_46)) (or (or ?v_2 P29) ?v_57)) (or (or ?v_77 ?v_15) ?v_61)) (or (or ?v_4 P21) ?v_62)) (or (or ?v_3 ?v_130) ?v_15)) (or (or ?v_6 ?v_39) P19)) (or (or P14 ?v_131) ?v_0)) (or (or ?v_132 ?v_15) ?v_133)) (or (or ?v_134 ?v_141) ?v_88)) (or (or ?v_40 ?v_60) ?v_118)) (or (or ?v_4 ?v_128) ?v_136)) (or (or P3 ?v_130) ?v_96)) (or (or ?v_80 ?v_22) ?v_140)) (or (or ?v_99 P5) ?v_138)) (or (or ?v_94 ?v_45) ?v_126)) (or (or ?v_0 P7) P18)) (or (or ?v_23 P14) ?v_126)) (or (or P23 ?v_124) ?v_96)) (or (or ?v_30 ?v_79) ?v_137)) (or (or ?v_114 ?v_49) ?v_22)) (or (or ?v_138 ?v_47) ?v_46)) (or (or ?v_60 ?v_12) ?v_97)) (or (or ?v_7 ?v_69) P6)) (or (or ?v_53 ?v_139) ?v_93)) (or (or P11 P6) P13)) (or (or ?v_6 ?v_46) ?v_80)) (or (or ?v_107 ?v_140) ?v_74)) (or (or ?v_61 ?v_0) ?v_18)) (or (or ?v_72 ?v_48) ?v_141)) (or (or ?v_47 ?v_65) P27)) (or (or ?v_78 ?v_72) P12)) (or (or P0 P21) ?v_118)) (or (or ?v_72 ?v_79) ?v_124)) (or (or ?v_108 ?v_125) ?v_93)) (or (or ?v_22 P23) ?v_7)) (or (or P24 ?v_100) ?v_91)) (or (or ?v_81 ?v_32) ?v_22)) (or (or ?v_63 ?v_31) ?v_8)) (or (or ?v_30 ?v_51) ?v_142)) (or (or ?v_18 ?v_98) ?v_112)) (or (or P11 ?v_18) ?v_90)) (or (or P0 P29) ?v_125)) (or (or ?v_143 ?v_57) ?v_49)) (or (or ?v_96 ?v_125) ?v_122)) (or (or ?v_43 ?v_127) ?v_126)) (or (or ?v_6 ?v_116) ?v_101)) (or (or ?v_87 ?v_76) ?v_111)) (or (or P17 ?v_144) P20)) (or (or ?v_68 ?v_140) ?v_11)) (or (or ?v_110 ?v_83) ?v_115)) (or (or P27 P23) ?v_145)) (or (or ?v_47 ?v_146) ?v_58)) (or (or ?v_60 P21) ?v_33)) (or (or ?v_0 ?v_125) ?v_46)) (or (or ?v_118 ?v_81) ?v_121)) (or (or ?v_13 P13) ?v_147)) (or (or ?v_24 ?v_96) ?v_5)) (or (or ?v_89 ?v_6) ?v_147)) (or (or ?v_139 ?v_85) P4)) (or (or ?v_39 ?v_73) ?v_5)) (or (or ?v_71 ?v_80) ?v_116)) (or (or ?v_71 ?v_128) ?v_23)) (or (or ?v_83 ?v_74) ?v_132)) (or (or P10 ?v_147) ?v_97)) (or (or P22 ?v_41) ?v_98)) (or (or ?v_74 ?v_3) ?v_61)) (or (or P15 ?v_123) ?v_92)) (or (or ?v_126 ?v_68) ?v_43)) (or (or ?v_31 P28) ?v_108)) (or ?v_148 ?v_106)) (or (or ?v_138 P4) ?v_12)) (or (or ?v_70 ?v_100) ?v_30)) (or (or ?v_21 P13) P19)) (or (or ?v_16 ?v_10) ?v_22)) (or (or ?v_69 ?v_48) ?v_82)) (or (or ?v_149 ?v_72) ?v_47)) (or (or P27 ?v_30) ?v_11)) (or (or ?v_29 (not ?v_32)) ?v_139)) (or (or ?v_138 ?v_51) ?v_35)) (or (or ?v_87 ?v_61) ?v_140)) (or (or ?v_108 P17) ?v_33)) (or (or ?v_147 ?v_72) ?v_49)) (or (or ?v_14 ?v_75) ?v_98)) (or (or ?v_118 ?v_142) ?v_87)) (or (or ?v_139 P27) P6)) (or (or ?v_94 ?v_150) ?v_136)) (or (or P10 ?v_98) P25)) (or (or ?v_91 ?v_102) ?v_82)) (or (or ?v_15 ?v_64) ?v_105)) (or (or ?v_137 ?v_46) ?v_9)) (or (or P8 ?v_56) ?v_84)) (or (or ?v_78 ?v_14) ?v_92)) (or (or P24 ?v_130) ?v_102)) (or (or ?v_48 ?v_141) ?v_136)) (or (or ?v_31 ?v_66) ?v_119)) (or (or ?v_109 P29) ?v_94)) (or (or P28 ?v_134) ?v_115)) (or (or ?v_63 ?v_24) ?v_115)) (or (or ?v_57 P15) ?v_95)) (or (or ?v_111 ?v_139) ?v_57)) (or (or P25 ?v_78) ?v_149)) (or (or P27 ?v_27) P20)) (or (or ?v_146 ?v_34) ?v_151)) (or (or ?v_121 ?v_98) ?v_11)) (or (or ?v_26 ?v_73) ?v_70)) (or (or ?v_64 ?v_6) ?v_71)) (or (or ?v_89 ?v_30) ?v_66)) (or (or ?v_7 ?v_115) ?v_47)) (or (or ?v_110 ?v_143) ?v_122)) (or (or ?v_132 ?v_152) P24)) (or (or ?v_22 ?v_95) ?v_5)) (or (or ?v_84 ?v_89) ?v_103)) (or (or ?v_21 ?v_90) ?v_122)) (or (or ?v_94 ?v_58) ?v_117)) (or (or ?v_39 ?v_85) ?v_118)) (or (or ?v_39 ?v_47) P2)) (or (or P20 ?v_69) ?v_107)) (or (or ?v_69 ?v_153) ?v_18)) (or (or ?v_129 ?v_73) ?v_7)) (or (or ?v_125 ?v_143) ?v_126)) (or (or P12 ?v_108) P20)) (or (or P26 P6) ?v_119)) (or (or P4 ?v_33) ?v_136)) (or (or ?v_63 ?v_57) ?v_97)) (or (or ?v_26 ?v_154) ?v_30)) (or (or ?v_78 P26) P20)) (or (or P18 ?v_40) ?v_82)) (or (or ?v_8 ?v_27) ?v_45)) (or (or ?v_109 P25) ?v_122)) (or (or ?v_39 P16) ?v_10)) (or (or P29 P24) ?v_114)) (or (or ?v_137 ?v_153) ?v_37)) (or (or P1 ?v_34) ?v_55)) (or (or ?v_52 P25) ?v_123)) (or (or ?v_14 ?v_124) ?v_117)) (or (or ?v_94 ?v_16) ?v_66)) (or (or ?v_99 ?v_127) ?v_44)) (or (or ?v_105 ?v_78) ?v_87)) (or (or ?v_126 P16) ?v_60)) (or (or ?v_24 ?v_87) ?v_66)) (or (or ?v_149 ?v_80) ?v_59)) (or (or P8 ?v_124) ?v_139)) (or (or ?v_57 ?v_135) P19)) (or (or ?v_5 ?v_87) P8)) (or (or ?v_75 ?v_0) ?v_53)) (or (or ?v_84 ?v_20) ?v_11)) (or (or ?v_29 ?v_126) ?v_107)) (or (or ?v_24 ?v_57) P29)) (or (or ?v_23 ?v_103) ?v_85)) (or (or P2 ?v_41) ?v_61)) (or (or ?v_15 P29) ?v_14)) (or (or ?v_88 P3) ?v_123)) (or (or ?v_120 ?v_130) ?v_116)) (or (or ?v_50 ?v_18) P13)) (or (or ?v_18 ?v_111) ?v_57)) (or (or ?v_155 ?v_90) ?v_125)) (or (or ?v_126 ?v_90) ?v_8)) (or (or ?v_135 ?v_121) ?v_120)) (or (or ?v_93 ?v_92) P19)) (or (or ?v_93 P5) ?v_107)) (or (or ?v_133 ?v_61) ?v_7)) (or (or ?v_143 P28) ?v_11)) (or (or ?v_86 ?v_122) ?v_100)) (or (or ?v_95 ?v_106) ?v_155)) (or (or ?v_124 P19) ?v_97)) (or (or ?v_8 ?v_117) ?v_72)) (or (or ?v_144 ?v_33) P28)) (or (or ?v_17 ?v_54) ?v_26)) (or (or ?v_0 ?v_92) ?v_116)) (or (or P7 ?v_55) P14)) (or (or ?v_37 P9) ?v_49)) (or (or P21 ?v_64) ?v_74)) (or (or ?v_33 ?v_0) ?v_121)) (or (or ?v_130 ?v_5) ?v_64)) (or (or ?v_14 ?v_101) ?v_33)) (or (or ?v_131 P1) ?v_36)) (or (or ?v_16 ?v_21) ?v_103)) (or (or ?v_52 ?v_41) P5)) (or (or ?v_57 ?v_91) ?v_123)) (or (or ?v_101 ?v_98) ?v_133)) (or (or ?v_107 ?v_9) ?v_70)) (or (or P7 ?v_57) ?v_145)) (or (or ?v_150 ?v_136) ?v_3)) (or (or ?v_80 ?v_80) P21)) (or (or P16 P11) ?v_10)) (or (or ?v_97 ?v_44) ?v_43)) (or (or ?v_45 P18) ?v_137)) (or (or ?v_155 ?v_123) ?v_119)) (or (or P15 ?v_90) ?v_143)) (or (or ?v_147 ?v_79) ?v_126)) (or (or ?v_107 P18) P21)) (or (or ?v_60 ?v_68) ?v_122)) (or (or ?v_145 ?v_50) ?v_143)) (or (or P16 ?v_151) ?v_32)) (or (or P22 ?v_92) ?v_75)) (or (or P26 ?v_29) ?v_112)) (or (or ?v_134 P22) ?v_46)) (or (or ?v_30 ?v_45) ?v_118)) (or (or ?v_110 ?v_39) ?v_111)) (or (or ?v_60 ?v_7) ?v_18)) (or (or ?v_9 ?v_130) ?v_5)) (or (or P16 P23) ?v_92)) (or (or ?v_38 P28) ?v_144)) (or (or ?v_98 ?v_134) ?v_133)) (or (or ?v_76 ?v_150) ?v_36)) (or (or P4 ?v_55) ?v_128)) (or (or ?v_5 ?v_31) ?v_133)) (or (or ?v_59 ?v_123) ?v_101)) (or (or ?v_60 P2) ?v_98)))))))))))))))))))))))))))
(check-sat)
(exit)
